[[41, 19, 45, 3, 18, 31, 17, 21, 42, 7, 2, 30, 23, 20, 50, 29, 16, 44, 22, 32, 49, 36, 35, 34, 39, 40, 37, 46], [48, 24, 38, 5, 15, 6, 4, 25, 12, 28, 27, 26, 47, 13, 14, 52, 11, 51, 33, 43, 10, 9, 8]]